
Gurobi 11.0.1 (win64) logging started Sun Mar 31 03:13:14 2024

Set parameter LogFile to value "C:\Projetos\Job_Rotation_Algorithms\Outputs\GurobiLogs\gurobi_log-output-13_hes-c118-CostaMirallesModel-NoExtraConstraint-2.log"
Gurobi Optimizer version 11.0.1 build v11.0.1rc0 (win64 - Windows 10.0 (19045.2))

CPU model: 11th Gen Intel(R) Core(TM) i7-1165G7 @ 2.80GHz, instruction set [SSE2|AVX|AVX2|AVX512]
Thread count: 4 physical cores, 8 logical processors, using up to 1 threads

WLS license 901039 - registered to Bitka Analytics
Optimize a model with 479 rows, 934 columns and 7662 nonzeros
Model fingerprint: 0x91cb1f02
Variable types: 2 continuous, 932 integer (932 binary)
Coefficient statistics:
  Matrix range     [1e+00, 1e+02]
  Objective range  [1e+00, 1e+00]
  Bounds range     [1e+00, 2e+02]
  RHS range        [1e+00, 2e+02]
Presolve removed 165 rows and 137 columns
Presolve time: 0.03s
Presolved: 314 rows, 797 columns, 4512 nonzeros
Variable types: 0 continuous, 797 integer (796 binary)

Root relaxation: objective 5.600000e+01, 297 iterations, 0.00 seconds (0.00 work units)

    Nodes    |    Current Node    |     Objective Bounds      |     Work
 Expl Unexpl |  Obj  Depth IntInf | Incumbent    BestBd   Gap | It/Node Time

     0     0   56.00000    0   18          -   56.00000      -     -    0s
     0     0   56.00000    0  106          -   56.00000      -     -    0s
     0     0   56.00000    0   91          -   56.00000      -     -    0s
     0     0   56.00000    0   25          -   56.00000      -     -    0s
     0     0   56.00000    0   71          -   56.00000      -     -    0s
     0     0   56.00000    0   60          -   56.00000      -     -    0s
     0     0   56.00000    0   90          -   56.00000      -     -    0s
     0     0   56.00000    0   26          -   56.00000      -     -    0s
     0     0   56.00000    0   26          -   56.00000      -     -    0s
H    0     0                      47.0000000   56.00000  19.1%     -    0s
     0     2   56.00000    0   26   47.00000   56.00000  19.1%     -    0s
H   91    49                      48.0000000   56.00000  16.7%  38.2    0s
H  567    75                      49.0000000   56.00000  14.3%  77.3    1s
H 1130   120                      50.0000000   56.00000  12.0%  93.6    4s
  1271   123   55.51134   12  129   50.00000   56.00000  12.0%   100    5s

Cutting planes:
  Gomory: 2
  Cover: 994
  Implied bound: 19
  Clique: 107
  MIR: 46
  StrongCG: 9
  GUB cover: 11
  Inf proof: 10
  Zero half: 3
  RLT: 7
  Relax-and-lift: 1

Explored 1721 nodes (173916 simplex iterations) in 6.51 seconds (5.59 work units)
Thread count was 1 (of 8 available processors)

Solution count 4: 50 49 48 47 

Optimal solution found (tolerance 1.00e-03)
Best objective 5.000000000000e+01, best bound 5.000000000000e+01, gap 0.0000%
